(declare-fun x () Int)
(declare-fun y () Int)
(declare-fun p () Bool)
(declare-fun f (Int Int) String)
(assert (forall (x Int) (and (p x y) (forall (y Int) (p (f x y) x x y (f x y) x)))))
(assert (p x y))
